50, 62425
2551, 202
2552, 230
2553, 815
2554, 856
2555, 750
2556, 798
2557, 724
2558, 812
2559, 542
2560, 373
2561, 384
2562, 636
2563, 719
2564, 975
2565, 860
2566, 593
2567, 261
2568, 603
2569, 977
2570, 494
2571, 999
2572, 911
2573, 828
2574, 895
2575, 855
2576, 518
2577, 139
2578, 4
2579, 688
2580, 108
2581, 350
2582, 85
2583, 832
2584, 477
2585, 313
2586, 868
2587, 613
2588, 571
2589, 822
2590, 752
2591, 626
2592, 399
2593, 189
2594, 374
2595, 953
2596, 549
2597, 958
2598, 816
2599, 375
2600, 954
